(set-logic QF_S)
(declare-fun var0 () String)
(declare-fun var1 () String)
(declare-fun var2 () Int)
(declare-fun var3 () Int)
(declare-fun var4 () String)
(declare-fun var5 () Int)
(declare-fun var6 () Int)
(assert (not (not (str.contains "8j" var0))))
(assert (str.contains (str.substr var1 var2 var3) (str.substr var4 var5 var6)))
(assert (not (> var6 var5)))
(assert (>= 37 var6))
(check-sat)